NAME : portcgen-27-31
COMMENT : portcgen N=27, seed=31
TYPE : TSP
DIMENSION : 27
EDGE_WEIGHT_TYPE : EUC_2D
NODE_COORD_SECTION
1 -84060 113186
2 -225810 -12928
3 -66819 -185636
4 38437 84698
5 -315768 -246478
6 84629 -192369
7 226942 -189467
8 -151973 190178
9 -31708 45245
10 -375506 -142106
11 -157904 -213370
12 -154546 -65273
13 14802 -453482
14 -122660 110852
15 -34749 53363
16 -284079 224653
17 465671 146649
18 -50075 243100
19 -8114 242097
20 182424 111799
21 179208 -220737
22 -244312 -147133
23 218119 -209578
24 53723 334882
25 -224127 88915
26 96834 -259576
27 124465 366720
